30
1 0 13
2 0 49
2 1 69
3 0 90
3 1 89
3 2 24
4 0 97
4 1 92
4 2 49
4 3 78
5 0 94
5 1 54
5 2 96
5 3 38
5 4 72
6 0 44
6 1 30
6 2 95
6 3 54
6 4 43
6 5 16
7 0 39
7 1 29
7 2 13
7 3 77
7 4 31
7 5 69
7 6 93
8 0 54
8 1 15
8 2 53
8 3 5
8 4 13
8 5 41
8 6 1
8 7 74
9 0 76
9 1 55
9 2 83
9 3 16
9 4 5
9 5 61
9 6 89
9 7 38
9 8 74
10 0 87
10 1 50
10 2 46
10 3 9
10 4 90
10 5 51
10 6 70
10 7 62
10 8 80
10 9 99
11 0 41
11 1 75
11 2 66
11 3 95
11 4 81
11 5 40
11 6 42
11 7 60
11 8 99
11 9 46
11 10 65
12 0 99
12 1 92
12 2 95
12 3 94
12 4 98
12 5 3
12 6 10
12 7 94
12 8 3
12 9 76
12 10 72
12 11 32
13 0 8
13 1 21
13 2 59
13 3 3
13 4 69
13 5 79
13 6 75
13 7 67
13 8 2
13 9 29
13 10 93
13 11 97
13 12 51
14 0 5
14 1 43
14 2 57
14 3 25
14 4 100
14 5 30
14 6 65
14 7 32
14 8 78
14 9 55
14 10 6
14 11 73
14 12 20
14 13 70
15 0 5
15 1 73
15 2 68
15 3 10
15 4 72
15 5 45
15 6 69
15 7 56
15 8 76
15 9 33
15 10 98
15 11 39
15 12 24
15 13 80
15 14 31
16 0 89
16 1 31
16 2 94
16 3 5
16 4 83
16 5 21
16 6 40
16 7 62
16 8 45
16 9 91
16 10 57
16 11 91
16 12 10
16 13 34
16 14 83
16 15 90
17 0 47
17 1 93
17 2 51
17 3 29
17 4 4
17 5 92
17 6 68
17 7 82
17 8 32
17 9 80
17 10 5
17 11 53
17 12 79
17 13 71
17 14 56
17 15 27
17 16 78
18 0 67
18 1 39
18 2 3
18 3 69
18 4 2
18 5 52
18 6 1
18 7 24
18 8 45
18 9 11
18 10 58
18 11 56
18 12 35
18 13 25
18 14 37
18 15 53
18 16 64
18 17 86
19 0 23
19 1 57
19 2 5
19 3 84
19 4 83
19 5 67
19 6 55
19 7 70
19 8 7
19 9 55
19 10 64
19 11 30
19 12 65
19 13 17
19 14 30
19 15 47
19 16 43
19 17 95
19 18 19
20 0 53
20 1 33
20 2 40
20 3 16
20 4 100
20 5 13
20 6 15
20 7 25
20 8 19
20 9 19
20 10 41
20 11 75
20 12 25
20 13 10
20 14 47
20 15 90
20 16 95
20 17 70
20 18 77
20 19 53
21 0 27
21 1 1
21 2 51
21 3 38
21 4 62
21 5 2
21 6 2
21 7 19
21 8 19
21 9 34
21 10 23
21 11 73
21 12 73
21 13 23
21 14 2
21 15 27
21 16 92
21 17 40
21 18 29
21 19 17
21 20 93
22 0 76
22 1 93
22 2 73
22 3 96
22 4 81
22 5 19
22 6 37
22 7 82
22 8 56
22 9 8
22 10 75
22 11 85
22 12 96
22 13 65
22 14 45
22 15 71
22 16 44
22 17 51
22 18 40
22 19 84
22 20 88
22 21 78
23 0 99
23 1 71
23 2 15
23 3 41
23 4 70
23 5 6
23 6 12
23 7 51
23 8 65
23 9 75
23 10 65
23 11 14
23 12 38
23 13 99
23 14 5
23 15 77
23 16 83
23 17 100
23 18 5
23 19 25
23 20 13
23 21 46
23 22 13
24 0 2
24 1 99
24 2 17
24 3 85
24 4 1
24 5 54
24 6 88
24 7 63
24 8 40
24 9 99
24 10 20
24 11 81
24 12 1
24 13 47
24 14 1
24 15 32
24 16 33
24 17 99
24 18 84
24 19 3
24 20 21
24 21 20
24 22 1
24 23 64
25 0 74
25 1 54
25 2 69
25 3 79
25 4 1
25 5 94
25 6 1
25 7 71
25 8 60
25 9 11
25 10 1
25 11 52
25 12 97
25 13 13
25 14 90
25 15 100
25 16 31
25 17 83
25 18 5
25 19 58
25 20 35
25 21 17
25 22 72
25 23 74
25 24 21
26 0 72
26 1 21
26 2 11
26 3 32
26 4 83
26 5 25
26 6 94
26 7 99
26 8 6
26 9 59
26 10 75
26 11 13
26 12 14
26 13 18
26 14 33
26 15 28
26 16 32
26 17 45
26 18 41
26 19 81
26 20 2
26 21 48
26 22 68
26 23 8
26 24 13
26 25 10
27 0 87
27 1 89
27 2 28
27 3 34
27 4 20
27 5 41
27 6 95
27 7 58
27 8 47
27 9 62
27 10 43
27 11 37
27 12 32
27 13 73
27 14 68
27 15 89
27 16 67
27 17 26
27 18 85
27 19 34
27 20 40
27 21 68
27 22 95
27 23 94
27 24 61
27 25 83
27 26 79
28 0 11
28 1 2
28 2 52
28 3 44
28 4 7
28 5 58
28 6 94
28 7 63
28 8 17
28 9 9
28 10 91
28 11 83
28 12 30
28 13 54
28 14 5
28 15 10
28 16 42
28 17 47
28 18 37
28 19 79
28 20 10
28 21 44
28 22 86
28 23 73
28 24 45
28 25 58
28 26 12
28 27 55
29 0 98
29 1 71
29 2 14
29 3 16
29 4 10
29 5 46
29 6 62
29 7 59
29 8 52
29 9 47
29 10 61
29 11 79
29 12 57
29 13 68
29 14 34
29 15 91
29 16 26
29 17 94
29 18 33
29 19 29
29 20 70
29 21 88
29 22 42
29 23 29
29 24 1
29 25 54
29 26 13
29 27 36
29 28 97
